data/solutions/recovery/degenerate/intermediate/binding/degenerate_intermediate_instance38/12.sol
Elapsed time: 0.05
Upper bound: 300317.0
Planning weighted value: 14607093454.0
C[0]=300317.0
C[1]=300313.0
C[2]=299125.0
C[3]=296568.0
C[4]=296526.0
C[5]=296181.0
C[6]=295500.0
C[7]=292421.0
C[8]=292087.0
C[9]=290562.0
C[10]=287224.0
C[11]=272095.0
C[12]=265499.0
C[13]=0.0
C[14]=0.0
C[15]=0.0
y[0]=11
y[1]=7
y[2]=11
y[3]=4
y[4]=0
y[5]=8
y[6]=5
y[7]=4
y[8]=1
y[9]=0
y[10]=12
y[11]=0
y[12]=3
y[13]=7
y[14]=4
y[15]=12
y[16]=6
y[17]=8
y[18]=12
y[19]=2
y[20]=7
y[21]=6
y[22]=9
y[23]=7
y[24]=7
y[25]=9
y[26]=9
y[27]=10
y[28]=5
y[29]=3
y[30]=3
y[31]=9
y[32]=7
y[33]=12
y[34]=5
y[35]=2
y[36]=11
y[37]=12
y[38]=4
y[39]=11
y[40]=10
y[41]=7
y[42]=8
y[43]=6
y[44]=10
y[45]=3
y[46]=2
y[47]=6
y[48]=1
y[49]=4
y[50]=5
y[51]=2
y[52]=8
y[53]=3
y[54]=0
y[55]=1
y[56]=3
y[57]=4
y[58]=0
y[59]=5
y[60]=3
y[61]=2
y[62]=8
y[63]=1
y[64]=5
y[65]=10
